30
0   152   155
1   151   153
2   151   154
3   79   79
4   81   79
5   77   76
6   41   38
7   41   41
8   42   38
9   24   22
10   21   24
11   20   23
12   10   12
13   10   10
14   10   15
15   9   5
16   8   10
17   6   8
18   8   3
19   7   4
20   6   6
21   5   2
22   3   2
23   6   2
24   4   3
25   1   4
26   5   6
27   1   2
28   6   6
29   3   1
300
